Route #1: 54 5 2 30 29 26
Route #2: 9 42 38 31 43 1 46 15
Route #3: 11 33 37 6 22 56
Route #4: 7 39 23 62 52 12 44 19
Route #5: 16 41 3 48 45 34
Route #6: 57 18 4 47 14 40 55 21
Route #7: 10 28 61 49 59 24 27
Route #8: 53 17 35 51 50 32 58
Route #9: 20 25 8 36 60 13
cost 1959.3641357421875